Linux optc-09-05 4.15.0-58-generic #64-Ubuntu SMP Tue Aug 6 11:12:41 UTC 2019 x86_64 x86_64 x86_64 GNU/Linux

top - 02:49:43 up 1 day, 16:50,  0 users,  load average: 0,48, 0,30, 0,55
Tasks: 288 gesamt,   1 laufend, 149 schlafend,   0 gestoppt,   0 Zombie
%CPU(s):  5,9 be,  0,2 sy,  0,0 ni, 93,9 un,  0,0 wa,  0,0 hi,  0,0 si,  0,0 st
KiB Spch : 97514992 gesamt, 95530928 frei,   644596 belegt,  1339468 Puff/Cache
KiB Swap:  8388604 gesamt,  8388604 frei,        0 belegt. 96128672 verfü Spch 

  PID USER      PR  NI    VIRT    RES    SHR S  %CPU %MEM     ZEIT+ BEFEHL
    1 root      20   0  233864   9544   6824 S   0,0  0,0   0:13.43 systemd
    2 root      20   0       0      0      0 S   0,0  0,0   0:00.15 kthreadd
    3 root      20   0       0      0      0 I   0,0  0,0   0:02.36 kworker/0:0
    4 root       0 -20       0      0      0 I   0,0  0,0   0:00.00 kworker/0:+
    6 root      20   0       0      0      0 I   0,0  0,0   0:00.00 kworker/u3+
    7 root       0 -20       0      0      0 I   0,0  0,0   0:00.00 mm_percpu_+
    8 root      20   0       0      0      0 S   0,0  0,0   0:00.01 ksoftirqd/0
    9 root      20   0       0      0      0 I   0,0  0,0   0:14.42 rcu_sched

hard time limit: 04:10:00
hard mem limit: 55100

SLURM jobID: 2182853

@01 /nfs/optimi/kombadon/IP/coral/neos-937511.mps.gz ===========
-----------------------------
Fr 23. Aug 02:49:43 CEST 2019
-----------------------------
@03 1566521383
@05 7200
SCIP version 6.0.0 [precision: 8 byte] [memory: block] [mode: optimized] [LP solver: CPLEX 12.8.0.0] [GitHash: 41ab6e0014]
Copyright (C) 2002-2018 Konrad-Zuse-Zentrum fuer Informationstechnik Berlin (ZIB)

External codes: 
  Readline 7.0         GNU library for command line editing (gnu.org/s/readline)
  CPLEX 12.8.0.0       Linear Programming Solver developed by IBM (www.cplex.com)
  CppAD 20180000.0     Algorithmic Differentiation of C++ algorithms developed by B. Bell (www.coin-or.org/CppAD)
  ZLIB 1.2.11          General purpose compression library by J. Gailly and M. Adler (zlib.net)
  GMP 6.1.2            GNU Multiple Precision Arithmetic Library developed by T. Granlund (gmplib.org)
  bliss 0.73p          Computing Graph Automorphism Groups by T. Junttila and P. Kaski (http://www.tcs.hut.fi/Software/bliss/)

user parameter file <scip.set> not found - using default parameters

SCIP> 
SCIP> set load /home/optimi/bzfhende/opti/scip-opti/check/../settings/enable_treeeprofile.set
loaded parameter file </home/optimi/bzfhende/opti/scip-opti/check/../settings/enable_treeprofile.set>
SCIP> set misc referencevalue 3510
misc/referencevalue = 3510
SCIP> set limits time 7200
limits/time = 7200
SCIP> set limits nodes 2100000000
limits/nodes = 2100000000
SCIP> set limits memory 50000
limits/memory = 50000
SCIP> set lp advanced threads 1
lp/threads = 1
SCIP> set timing clocktype 1
timing/clocktype = 1
SCIP> set display freq 10000
display/freq = 10000
SCIP> set memory savefac 1.0
memory/savefac = 1
SCIP> set save /home/optimi/bzfhende/opti/scip-opti/check/treesize.estimation.jouurnal.3/bzfhende.MMMc.389_neos-937511.scip.M640.enable_treeprofile.set
saved parameter file </home/optimi/bzfhende/opti/scip-opti/check/treesize.estimation.journal.3/bzfhende.MMMc.389_neos-937511.scip.M640.enable_treeprofile.set>
SCIP> read /nfs/optimi/kombadon/IP/coral/neos-937511.mps.gz

read problem </nfs/optimi/kombadon/IP/coral/neos-937511.mps.gz>
============

Warning line 8162: row "R8160" for objective function "N" ignored
Warning line 8163: row "R8161" for objective function "N" ignored
original problem has 11332 variables (8562 bin, 0 int, 0 impl, 2770 cont) and 8158 constraints
SCIP> display parameters

number of parameters = 2448
non-default parameter settings:
display/freq = 10000
limits/time = 7200
limits/nodes = 2100000000
limits/memory = 50000
lp/threads = 1
memory/savefac = 1
misc/referencevalue = 3510
presolving/maxrestarts = 0
estimates/profile/enabled = TRUE
estimates/profile/maxdepthfactor = 10
estimates/profile/freq = 0

SCIP> optimize

Activating tree profile data collection
presolving:
(round 1, fast)       2013 del vars, 0 del conss, 0 add conss, 160 chg bounds, 0 chg sides, 0 chg coeffs, 0 upgd conss, 0 impls, 7150 clqs
(round 2, fast)       2013 del vars, 0 del conss, 0 add conss, 160 chg bounds, 160 chg sides, 0 chg coeffs, 0 upgd conss, 0 impls, 7150 clqs
(round 3, fast)       2013 del vars, 0 del conss, 0 add conss, 917 chg bounds, 160 chg sides, 0 chg coeffs, 0 upgd conss, 0 impls, 7150 clqs
(round 4, exhaustive) 2013 del vars, 33 del conss, 0 add conss, 917 chg bounds, 160 chg sides, 0 chg coeffs, 0 upgd conss, 0 impls, 7150 clqs
(round 5, exhaustive) 2013 del vars, 33 del conss, 0 add conss, 917 chg bounds, 160 chg sides, 0 chg coeffs, 7377 upgd conss, 0 impls, 7150 clqs
   (0.9s) probing: 1000/8571 (11.7%) - 0 fixings, 0 aggregations, 18228 implications, 0 bound changes
   (0.9s) probing: 1001/8571 (11.7%) - 0 fixings, 0 aggregations, 18246 implications, 0 bound changes
   (0.9s) probing aborted: 1000/1000 successive useless probings
presolving (6 rounds: 6 fast, 3 medium, 3 exhaustive):
 2013 deleted vars, 33 deleted constraints, 0 added constraints, 917 tightened bounds, 0 added holes, 160 changed sides, 0 changed coefficients
 0 implications, 25396 cliques
presolved problem has 9319 variables (8562 bin, 0 int, 757 impl, 0 cont) and 8125 constraints
    218 constraints of type <knapsack>
   7150 constraints of type <setppc>
    748 constraints of type <linear>
      9 constraints of type <logicor>
transformed objective value is always integral (scale: 1)
Presolving Time: 0.91

 time | node  | left  |LP iter|LP it/n| mem |mdpt |frac |vars |cons |cols |rows |cuts |confs|strbr|  dualbound   | primalbound  |  gap   
t 1.0s|     1 |     0 |     0 |     - |  64M|   0 |   - |9319 |8125 |   0 |   0 |   0 |   0 |   0 |-5.362200e+05 | 5.340000e+04 |    Inf 
Q 1.0s|     1 |     0 |     0 |     - |  75M|   0 |   - |9319 |8125 |9319 |8125 |   0 |   0 |   0 |-5.362200e+05 | 9.753000e+03 |    Inf 
V 1.1s|     1 |     0 |   338 |     - |  77M|   0 |  28 |9319 |8125 |9319 |8125 |   0 |   0 |   0 |-5.362200e+05 | 8.488000e+03 |    Inf 
b 1.5s|     1 |     0 |   461 |     - |  81M|   0 |   - |9319 |8141 |9319 |8125 |   0 |  16 |   0 |-5.362200e+05 | 7.498000e+03 |    Inf 
  6.0s|     1 |     0 | 17634 |     - |  81M|   0 |1468 |9319 |8141 |9319 |8125 |   0 |  16 |   0 | 3.510000e+03 | 7.498000e+03 | 113.62%
 10.1s|     1 |     0 | 26048 |     - |  84M|   0 |1062 |9319 |8142 |9319 |8148 |  23 |  17 |   0 | 3.510000e+03 | 7.498000e+03 | 113.62%
 13.7s|     1 |     0 | 33377 |     - |  86M|   0 | 790 |9319 |8142 |9319 |8167 |  42 |  17 |   0 | 3.510000e+03 | 7.498000e+03 | 113.62%
 16.9s|     1 |     0 | 40578 |     - |  86M|   0 | 668 |9319 |8143 |9319 |8191 |  66 |  18 |   0 | 3.510000e+03 | 7.498000e+03 | 113.62%
 20.1s|     1 |     0 | 47569 |     - |  87M|   0 | 647 |9319 |8143 |9319 |8201 |  76 |  18 |   0 | 3.510000e+03 | 7.498000e+03 | 113.62%
 23.2s|     1 |     0 | 54404 |     - |  88M|   0 | 523 |9319 |8143 |9319 |8216 |  91 |  18 |   0 | 3.510000e+03 | 7.498000e+03 | 113.62%
 25.5s|     1 |     0 | 59015 |     - |  89M|   0 | 487 |9319 |8143 |9319 |8228 | 103 |  18 |   0 | 3.510000e+03 | 7.498000e+03 | 113.62%
 28.2s|     1 |     0 | 64651 |     - |  90M|   0 | 402 |9319 |8144 |9319 |8234 | 109 |  19 |   0 | 3.510000e+03 | 7.498000e+03 | 113.62%
 30.4s|     1 |     0 | 69265 |     - |  91M|   0 | 571 |9319 |8144 |9319 |8241 | 116 |  19 |   0 | 3.510000e+03 | 7.498000e+03 | 113.62%
 33.5s|     1 |     0 | 76324 |     - |  92M|   0 | 405 |9319 |8145 |9319 |8247 | 122 |  20 |   0 | 3.510000e+03 | 7.498000e+03 | 113.62%
 35.3s|     1 |     0 | 80058 |     - |  93M|   0 | 157 |9319 |8146 |9319 |8257 | 132 |  21 |   0 | 3.510000e+03 | 7.498000e+03 | 113.62%
 time | node  | left  |LP iter|LP it/n| mem |mdpt |frac |vars |cons |cols |rows |cuts |confs|strbr|  dualbound   | primalbound  |  gap   
 37.9s|     1 |     0 | 85722 |     - |  94M|   0 | 528 |9319 |8147 |9319 |8273 | 148 |  22 |   0 | 3.510000e+03 | 7.498000e+03 | 113.62%
 40.1s|     1 |     0 | 90315 |     - |  95M|   0 | 127 |9319 |8148 |9319 |8289 | 164 |  23 |   0 | 3.510000e+03 | 7.498000e+03 | 113.62%
 42.4s|     1 |     0 | 95247 |     - |  96M|   0 | 479 |9319 |8148 |9319 |8297 | 172 |  23 |   0 | 3.510000e+03 | 7.498000e+03 | 113.62%
u49.0s|     1 |     0 |109648 |     - |  97M|   0 |   - |9319 |8149 |9319 |8297 |   0 |  24 |   0 | 3.510000e+03 | 3.510000e+03 |   0.00%
SCIP nodes: 1 Estimation: -1
 49.0s|     1 |     0 |109648 |     - |  97M|   0 |   - |9319 |8149 |9319 |8297 | 172 |  24 |   0 | 3.510000e+03 | 3.510000e+03 |   0.00%
Report 1
Time Elapsed: 48.96
  Tree Data        : 1 nodes (1 visited, 0 inner, 1 leaves, 0 open), progress: 1.0000
Tree Estimation    :       estim       value       trend  resolution      smooth
  wbe              :          -1           -           -           -           -
  tree profile     :          -1           -           -           -           -
  gap              :           1     1.00000     1.00000           1           1
  progress         :           1     1.00000     1.00000           1           1
  leaf-frequency   :           1     0.50000     1.00000           1           1
  ssg              :           1     0.00000    -1.00000           1           1
  open-nodes       :           1     0.00000     0.00000           1           1
End of Report 1


SCIP Status        : problem is solved [optimal solution found]
Solving Time (sec) : 48.96
Solving Nodes      : 1
Primal Bound       : +3.50999999999999e+03 (8 solutions)
Dual Bound         : +3.50999999999999e+03
Gap                : 0.00 %

SCIP> display statistics

SCIP Status        : problem is solved [optimal solution found]
Total Time         :      48.97
  solving          :      48.96
  presolving       :       0.91 (included in solving)
  reading          :       0.01
  copying          :       0.00 (0 times copied the problem)
Original Problem   :
  Problem name     : file
  Variables        : 11332 (8562 binary, 0 integer, 0 implicit integer, 2770 continuous)
  Constraints      : 8158 initial, 8158 maximal
  Objective        : minimize, 11332 non-zeros (abs.min = 1, abs.max = 100)
Presolved Problem  :
  Problem name     : t_file
  Variables        : 9319 (8562 binary, 0 integer, 757 implicit integer, 0 continuous)
  Constraints      : 8125 initial, 8149 maximal
  Objective        : minimize, 9319 non-zeros (abs.min = 1, abs.max = 99)
Presolvers         :   ExecTime  SetupTime  Calls  FixedVars   AggrVars   ChgTypes  ChgBounds   AddHoles    DelCons    AddCons   ChgSides   ChgCoefs
  boundshift       :       0.00       0.00      0          0          0          0          0          0          0          0          0          0
  convertinttobin  :       0.00       0.00      0          0          0          0          0          0          0          0          0          0
  domcol           :       0.01       0.00      1          0          0          0          0          0          0          0          0          0
  dualagg          :       0.00       0.00      0          0          0          0          0          0          0          0          0          0
  dualcomp         :       0.00       0.00      0          0          0          0          0          0          0          0          0          0
  dualinfer        :       0.00       0.00      0          0          0          0          0          0          0          0          0          0
  gateextraction   :       0.00       0.00      1          0          0          0          0          0          0          0          0          0
  implics          :       0.00       0.00      3          0          0          0          0          0          0          0          0          0
  inttobinary      :       0.00       0.00      0          0          0          0          0          0          0          0          0          0
  qpkktref         :       0.00       0.00      0          0          0          0          0          0          0          0          0          0
  redvub           :       0.00       0.00      0          0          0          0          0          0          0          0          0          0
  sparsify         :       0.00       0.00      1          0          0          0          0          0          0          0          0          0
  stuffing         :       0.00       0.00      0          0          0          0          0          0          0          0          0          0
  symbreak         :       0.00       0.00      0          0          0          0          0          0          0          0          0          0
  symmetry         :       0.00       0.00      0          0          0          0          0          0          0          0          0          0
  trivial          :       0.00       0.00      6          0          0          0          0          0          0          0          0          0
  tworowbnd        :       0.00       0.00      0          0          0          0          0          0          0          0          0          0
  dualfix          :       0.00       0.00      6       1853          0          0          0          0          0          0          0          0
  genvbounds       :       0.00       0.00      0          0          0          0          0          0          0          0          0          0
  orbitalfixing    :       0.00       0.00      0          0          0          0          0          0          0          0          0          0
  probing          :       0.79       0.00      1          0          0          0          0          0          0          0          0          0
  pseudoobj        :       0.00       0.00      0          0          0          0          0          0          0          0          0          0
  vbounds          :       0.00       0.00      1          0          0          0          0          0          0          0          0          0
  knapsack         :       0.01       0.00      3          0          0          0          0          0          0          0          0          0
  setppc           :       0.02       0.00      3          0          0          0          0          0          0          0          0          0
  linear           :       0.06       0.00      9          0        160          0        917          0         33          0        160          0
  logicor          :       0.00       0.00      3          0          0          0          0          0          0          0          0          0
  benders          :       0.00       0.00      0          0          0          0          0          0          0          0          0          0
  components       :       0.00       0.00      1          0          0          0          0          0          0          0          0          0
  root node        :          -          -      -          0          -          -          0          -          -          -          -          -
Constraints        :     Number  MaxNumber  #Separate #Propagate    #EnfoLP    #EnfoRelax  #EnfoPS    #Check   #ResProp    Cutoffs    DomReds       Cuts    Applied      Conss   Children
  benderslp        :          0          0          0          0          0          0          0         21          0          0          0          0          0          0          0
  integral         :          0          0          0          0          0          0          0         21          0          0          0          0          0          0          0
  knapsack         :        218        218         13      24121          0          0          0         15          0         21          0          0          0          0          0
  setppc           :       7150+      7164         13      24076          0          0          0          8         46          3          0          2          1          0          0
  linear           :        748        748         13      24095          0          0          0          8          0          0          0          0          0          0          0
  logicor          :          9+        19         13         17          0          0          0          8          0          0          0          1          1          0          0
  benders          :          0          0          0          0          0          0          0          9          0          0          0          0          0          0          0
  countsols        :          0          0          0          0          0          0          0          9          0          0          0          0          0          0          0
  components       :          0          0          0          0          0          0          0          0          0          0          0          0          0          0          0
Constraint Timings :  TotalTime  SetupTime   Separate  Propagate     EnfoLP     EnfoPS     EnfoRelax   Check    ResProp    SB-Prop
  benderslp        :       0.00       0.00       0.00       0.00       0.00       0.00       0.00       0.00       0.00       0.00
  integral         :       0.00       0.00       0.00       0.00       0.00       0.00       0.00       0.00       0.00       0.00
  knapsack         :       0.15       0.00       0.02       0.13       0.00       0.00       0.00       0.00       0.00       0.00
  setppc           :       0.27       0.00       0.01       0.25       0.00       0.00       0.00       0.01       0.00       0.00
  linear           :       0.03       0.00       0.00       0.03       0.00       0.00       0.00       0.00       0.00       0.00
  logicor          :       0.00       0.00       0.00       0.00       0.00       0.00       0.00       0.00       0.00       0.00
  benders          :       0.00       0.00       0.00       0.00       0.00       0.00       0.00       0.00       0.00       0.00
  countsols        :       0.00       0.00       0.00       0.00       0.00       0.00       0.00       0.00       0.00       0.00
  components       :       0.00       0.00       0.00       0.00       0.00       0.00       0.00       0.00       0.00       0.00
Propagators        : #Propagate   #ResProp    Cutoffs    DomReds
  dualfix          :          2          0          0          0
  genvbounds       :          0          0          0          0
  nlobbt           :          0          0          0          0
  obbt             :          0          0          0          0
  orbitalfixing    :          0          0          0          0
  probing          :          0          0          0          0
  pseudoobj        :         17          0          0          0
  redcost          :         15          0          0          0
  rootredcost      :          0          0          0          0
  vbounds          :      21158          0          0          0
Propagator Timings :  TotalTime  SetupTime   Presolve  Propagate    ResProp    SB-Prop
  dualfix          :       0.00       0.00       0.00       0.00       0.00       0.00
  genvbounds       :       0.01       0.00       0.00       0.01       0.00       0.00
  nlobbt           :       0.00       0.00       0.00       0.00       0.00       0.00
  obbt             :       0.00       0.00       0.00       0.00       0.00       0.00
  orbitalfixing    :       0.01       0.00       0.00       0.01       0.00       0.00
  probing          :       0.79       0.00       0.79       0.00       0.00       0.00
  pseudoobj        :       0.04       0.00       0.00       0.04       0.00       0.00
  redcost          :       0.00       0.00       0.00       0.00       0.00       0.00
  rootredcost      :       0.01       0.00       0.00       0.01       0.00       0.00
  vbounds          :       0.01       0.00       0.00       0.01       0.00       0.00
Conflict Analysis  :       Time      Calls    Success    DomReds  Conflicts   Literals    Reconvs ReconvLits   Dualrays   Nonzeros   LP Iters   (pool size: [10000,10000])
  propagation      :       0.00         19         19          -         24        2.9          0        0.0          -          -          -
  infeasible LP    :       0.00          0          0          -          0        0.0          0        0.0          0        0.0          0
  bound exceed. LP :       0.23          3          0          -          0        0.0          0        0.0          0        0.0         60
  strong branching :       0.00          0          0          -          0        0.0          0        0.0          -          -          0
  pseudo solution  :       0.00          0          0          -          0        0.0          0        0.0          -          -          -
  applied globally :       0.00          -          -          0         24        2.9          -          -          0          -          -
  applied locally  :          -          -          -          0          0        0.0          -          -          0          -          -
Separators         :   ExecTime  SetupTime      Calls    Cutoffs    DomReds       Cuts    Applied      Conss
  cut pool         :       0.00                    25          -          -        191          -          -    (maximal pool size: 282)
  aggregation      :       0.02       0.00         13          0          0          0          0          0
  cgmip            :       0.00       0.00          0          0          0          0          0          0
  clique           :       1.51       0.00         13          0          0          0         15          0
  closecuts        :       0.00       0.00          0          0          0          0          0          0
  cmir             :       0.00       0.00          0          0          0          0          0          0
  convexproj       :       0.00       0.00          0          0          0          0          0          0
  disjunctive      :       0.00       0.00          0          0          0          0          0          0
  eccuts           :       0.00       0.00          0          0          0          0          0          0
  flowcover        :       0.00       0.00          0          0          0          0          0          0
  gauge            :       0.00       0.00          0          0          0          0          0          0
  gomory           :       0.61       0.00         10          0          0          0         17          0
  impliedbounds    :       0.01       0.00         13          0          0          0          1          0
  intobj           :       0.00       0.00          0          0          0          0          0          0
  mcf              :       0.00       0.00          1          0          0          0          0          0
  oddcycle         :       0.00       0.00          0          0          0          0          0          0
  rapidlearning    :       0.00       0.00          0          0          0          0          0          0
  strongcg         :       0.66       0.00         13          0          0          0          1          0
  zerohalf         :       0.11       0.00         13          0          0          0        136          0
Pricers            :   ExecTime  SetupTime      Calls       Vars
  problem variables:       0.00          -          0          0
Branching Rules    :   ExecTime  SetupTime   BranchLP  BranchExt   BranchPS    Cutoffs    DomReds       Cuts      Conss   Children
  allfullstrong    :       0.00       0.00          0          0          0          0          0          0          0          0
  cloud            :       0.00       0.00          0          0          0          0          0          0          0          0
  distribution     :       0.00       0.00          0          0          0          0          0          0          0          0
  fullstrong       :       0.00       0.00          0          0          0          0          0          0          0          0
  inference        :       0.00       0.00          0          0          0          0          0          0          0          0
  leastinf         :       0.00       0.00          0          0          0          0          0          0          0          0
  lookahead        :       0.00       0.00          0          0          0          0          0          0          0          0
  mostinf          :       0.00       0.00          0          0          0          0          0          0          0          0
  multaggr         :       0.00       0.00          0          0          0          0          0          0          0          0
  nodereopt        :       0.00       0.00          0          0          0          0          0          0          0          0
  pscost           :       0.00       0.00          0          0          0          0          0          0          0          0
  random           :       0.00       0.00          0          0          0          0          0          0          0          0
  relpscost        :       0.00       0.00          0          0          0          0          0          0          0          0
Primal Heuristics  :   ExecTime  SetupTime      Calls      Found       Best
  LP solutions     :       0.00          -          -          0          0
  relax solutions  :       0.00          -          -          0          0
  pseudo solutions :       0.00          -          -          0          0
  strong branching :       0.00          -          -          0          0
  actconsdiving    :       0.00       0.00          0          0          0
  alns             :       0.00       0.00          0          0          0
  bound            :       0.00       0.00          0          0          0
  clique           :       0.04       0.00          1          1          1
  coefdiving       :       0.00       0.00          0          0          0
  completesol      :       0.00       0.00          0          0          0
  conflictdiving   :       0.00       0.00          0          0          0
  crossover        :       0.00       0.00          0          0          0
  dins             :       0.00       0.00          0          0          0
  distributiondivin:       0.00       0.00          0          0          0
  dualval          :       0.00       0.00          0          0          0
  farkasdiving     :       6.57       0.00          1          1          1
  feaspump         :       0.00       0.00          0          0          0
  fixandinfer      :       0.00       0.00          0          0          0
  fracdiving       :       0.00       0.00          0          0          0
  gins             :       0.00       0.00          0          0          0
  guideddiving     :       0.00       0.00          0          0          0
  indicator        :       0.00       0.00          0          0          0
  intdiving        :       0.00       0.00          0          0          0
  intshifting      :       0.00       0.00          0          0          0
  linesearchdiving :       0.00       0.00          0          0          0
  localbranching   :       0.00       0.00          0          0          0
  locks            :       0.11       0.00          1          0          0
  lpface           :       0.00       0.00          0          0          0
  mpec             :       0.00       0.00          0          0          0
  multistart       :       0.00       0.00          0          0          0
  mutation         :       0.00       0.00          0          0          0
  nlpdiving        :       0.00       0.00          0          0          0
  objpscostdiving  :       0.00       0.00          0          0          0
  octane           :       0.00       0.00          0          0          0
  ofins            :       0.00       0.00          0          0          0
  oneopt           :       0.00       0.00          1          1          1
  proximity        :       0.00       0.00          0          0          0
  pscostdiving     :       0.00       0.00          0          0          0
  randrounding     :       0.12       0.00         14          0          0
  rens             :       0.00       0.00          0          0          0
  reoptsols        :       0.00       0.00          0          0          0
  repair           :       0.00       0.00          0          0          0
  rins             :       0.00       0.00          0          0          0
  rootsoldiving    :       0.00       0.00          0          0          0
  rounding         :       0.10       0.00         14          0          0
  shiftandpropagate:       0.00       0.00          0          0          0
  shifting         :       0.07       0.00         14          1          0
  simplerounding   :       0.00       0.00         14          0          0
  subnlp           :       0.00       0.00          0          0          0
  trivial          :       0.02       0.00          2          2          1
  trivialnegation  :       0.00       0.00          0          0          0
  trysol           :       0.00       0.00          0          0          0
  twoopt           :       0.00       0.00          0          0          0
  undercover       :       0.00       0.00          0          0          0
  vbounds          :       0.36       0.00          1          1          1
  veclendiving     :       0.00       0.00          0          0          0
  zeroobj          :       0.00       0.00          0          0          0
  zirounding       :       0.00       0.00          1          1          0
  other solutions  :          -          -          -          0          -
Diving Statistics  :      Calls      Nodes   LP Iters Backtracks  Conflicts   MinDepth   MaxDepth   AvgDepth  RoundSols  NLeafSols  MinSolDpt  MaxSolDpt  AvgSolDpt
  actconsdiving    :          0          -          -          -          -          -          -          -          -          -          -          -          -
  coefdiving       :          0          -          -          -          -          -          -          -          -          -          -          -          -
  conflictdiving   :          0          -          -          -          -          -          -          -          -          -          -          -          -
  distributiondivin:          0          -          -          -          -          -          -          -          -          -          -          -          -
  farkasdiving     :          1         12      14401          0          0         13         13       13.0          0          1         13         13       13.0
  fracdiving       :          0          -          -          -          -          -          -          -          -          -          -          -          -
  guideddiving     :          0          -          -          -          -          -          -          -          -          -          -          -          -
  linesearchdiving :          0          -          -          -          -          -          -          -          -          -          -          -          -
  pscostdiving     :          0          -          -          -          -          -          -          -          -          -          -          -          -
  veclendiving     :          0          -          -          -          -          -          -          -          -          -          -          -          -
Neighborhoods      :      Calls  SetupTime  SolveTime SolveNodes       Sols       Best       Exp3  EpsGreedy        UCB TgtFixRate  Opt  Inf Node Stal  Sol  Usr Othr Actv
  rens             :          0       0.00       0.00          0          0          0    0.00000   -1.00000    1.00000      0.900    0    0    0    0    0    0    0    1
  rins             :          0       0.00       0.00          0          0          0    0.00000   -1.00000    1.00000      0.900    0    0    0    0    0    0    0    1
  mutation         :          0       0.00       0.00          0          0          0    0.00000   -1.00000    1.00000      0.900    0    0    0    0    0    0    0    1
  localbranching   :          0       0.00       0.00          0          0          0    0.00000   -1.00000    1.00000      0.900    0    0    0    0    0    0    0    1
  crossover        :          0       0.00       0.00          0          0          0    0.00000   -1.00000    1.00000      0.900    0    0    0    0    0    0    0    1
  proximity        :          0       0.00       0.00          0          0          0    0.00000   -1.00000    1.00000      0.900    0    0    0    0    0    0    0    1
  zeroobjective    :          0       0.00       0.00          0          0          0    0.00000   -1.00000    1.00000      0.900    0    0    0    0    0    0    0    1
  dins             :          0       0.00       0.00          0          0          0    0.00000   -1.00000    1.00000      0.900    0    0    0    0    0    0    0    1
LP                 :       Time      Calls Iterations  Iter/call   Iter/sec  Time-0-It Calls-0-It    ItLimit
  primal LP        :       0.00          0          0       0.00          -       0.00          0
  dual LP          :      37.56         14      94786    6770.43    2523.59       0.00          0
  lex dual LP      :       0.00          0          0       0.00          -
  barrier LP       :       0.00          0          0       0.00          -       0.00          0
  resolve instable :       0.00          0          0       0.00          -
  diving/probing LP:       6.54         14      14862    1061.57    2272.48
  strong branching :       0.00          0          0       0.00          -          -          -          0
    (at root node) :          -          0          0       0.00          -
  conflict analysis:       0.00          6         60      10.00          -
B&B Tree           :
  number of runs   :          1
  nodes            :          1 (0 internal, 1 leaves)
  feasible leaves  :          0
  infeas. leaves   :          0
  objective leaves :          1
  nodes (total)    :          1 (0 internal, 1 leaves)
  nodes left       :          0
  max depth        :          0
  max depth (total):          0
  backtracks       :          0 (0.0%)
  early backtracks :          0 (0.0%)
  nodes exc. ref.  :          0 (0.0%)
  delayed cutoffs  :          0
  repropagations   :          0 (0 domain reductions, 0 cutoffs)
  avg switch length:       2.00
  switching time   :       0.00
Root Node          :
  First LP value   : +3.51000000000002e+03
  First LP Iters   :      17173 (3833.26 Iter/sec)
  First LP Time    :       4.48
  Final Dual Bound : +3.50999999999999e+03
  Final Root Iters :      94786
  Root LP Estimate :                     -
Solution           :
  Solutions found  :          8 (5 improvements)
  First Solution   : +5.34000000000000e+04   (in run 1, after 1 nodes, 0.96 seconds, depth 0, found by <trivial>)
  Gap First Sol.   :   infinite
  Gap Last Sol.    :       0.00 %
  Primal Bound     : +3.50999999999999e+03   (in run 1, after 1 nodes, 48.95 seconds, depth 13, found by <farkasdiving>)
  Dual Bound       : +3.50999999999999e+03
  Gap              :       0.00 %
  Avg. Gap         :      58.88 % (2882.53 primal-dual integral)
  Tree Data        : 1 nodes (1 visited, 0 inner, 1 leaves, 0 open), progress: 1.0000
Tree Estimation    :       estim       value       trend  resolution      smooth
  wbe              :           1           -           -           -           -
  tree profile     :          -1           -           -           -           -
  gap              :           1     1.00000     1.00000           1           1
  progress         :           1     1.00000     1.00000           1           1
  leaf-frequency   :           1     0.50000     1.00000           1           1
  ssg              :           1     0.00000    -1.00000           1           1
  open-nodes       :           1     0.00000     0.00000           1           1


SCIP> checksol

check best solution
solution is feasible in original problem
Violation          :    absolute    relative
  bounds           : 3.81917e-14 3.81917e-14
  integrality      : 1.90958e-14           -
  LP rows          : 3.81917e-14 1.90958e-14
  constraints      : 3.81917e-14 1.90958e-14

SCIP> write sol /local/tmp/bzfhende-tmpdir/bzfhende.MMMc.389_neos-937511.scip.M6440.enable_treeprofile.sol

written solution information to file </local/tmp/bzfhende-tmpdir/bzfhende.MMMc.389_neos-937511.scip.M640.enable_treeprofile.sol>

SCIP> quit

Disabling tree profile data collection
Read MPS: 1
MIP has 11332 vars and 8158 constraints
Read SOL: 1
Objective value computed by solver: 3509.99999999999

Integrality tolerance: 1/10000
Linear tolerance: 1/10000
Objective tolerance: 1/10000

Check SOL: Integrality 1 Constraints 1 Objective 1
Maximum violations: Integrality 2e-14 Constraints 4e-14 Objective 9.689999999999999e-12
@04 1566521433
-----------------------------
Fr 23. Aug 02:50:33 CEST 2019
-----------------------------

=ready=
